[title]
Pu-245 Inhalation, Aerosols Type F

[nuclide]
  Pu-245  Am-245  Cm-245  Pu-241  Am-241  U-237   Np-237  Pa-233  U-233
  Th-229  Ra-225  Ac-225  Fr-221  At-217  Bi-213  Po-213  Tl-209  Pb-209

[include:../parameter_94-Pu_inh_Aerosols-TypeF.inc]

[include:../common_intake_inh.inc]

[include:../common_HRTM.inc]
[include:../common_HATM+UB.inc]

[include:../element_96-Cm.inc]
[include:../element_95-Am.inc]
[include:../element_94-Pu.inc]
[include:../element_93-Np.inc]
[include:../element_92-U.inc]
[include:../element_91-Pa.inc]
[include:../element_90-Th.inc]
[include:../element_89-Ac.inc]
[include:../element_88-Ra.inc]
[include:../element_87-Fr.inc]
[include:../element_86-Rn_inh.inc]
[include:../element_85-At.inc]
[include:../element_84-Po.inc]
[include:../element_83-Bi.inc]
[include:../element_82-Pb.inc]
[include:../element_81-Tl.inc]
