[title]
Zn-72 Ingestion

[nuclide]
  Zn-72  Ga-72

[include:../common_30-Zn_ing.inc]

# not good
[Ga-72:compartment]
#-----+---------------------| S-Coefficient
# Func| Compartment         | Source Region
#-----+---------------------+---------------
  acc   ET1-F                 ET1-sur
  acc   ET2-F                 ET2-sur
  acc   ETseq-F               ET2-seq
  acc   LNET-F                LN-ET
  acc   BB-F                  Bronchi
  acc   BBseq-F               Bronchi-q
  acc   bb-F                  Brchiole
  acc   bbseq-F               Brchiole-q
  acc   ALV-F                 ALV
  acc   INT-F                 ALV
  acc   LNTH-F                LN-Th
  acc   ET1-S                 ET1-sur
  acc   ET2-S                 ET2-sur
  acc   ETseq-S               ET2-seq
  acc   LNET-S                LN-ET
  acc   BB-S                  Bronchi
  acc   BBseq-S               Bronchi-q
  acc   bb-S                  Brchiole
  acc   bbseq-S               Brchiole-q
  acc   ALV-S                 ALV
  acc   INT-S                 ALV
  acc   LNTH-S                LN-Th
  acc   ET2-B                 ET2-bnd
  acc   ETseq-B               ET2-seq
  acc   LNET-B                LN-ET
  acc   BB-B                  Bronchi
  acc   BBseq-B               Bronchi-b
  acc   bb-B                  Brchiole
  acc   bbseq-B               Brchiole-b
  acc   ALV-B                 ALV
  acc   INT-B                 ALV
  acc   LNTH-B                LN-Th
  exc   Environment           ---
