[title]
Th-231 Inhalation, Aerosols Type S

[nuclide]
  Th-231  Pa-231  Ac-227  Th-227
  Fr-223  Ra-223  At-219  Rn-219
  Bi-215  Po-215  Pb-211
  Bi-211  Po-211  Tl-207

[include:../parameter_90-Th_inh_Aerosols-TypeS.inc]

[include:../common_intake_inh.inc]

[include:../common_HRTM.inc]
[include:../common_HATM+UB.inc]

[include:../element_92-U.inc]
[include:../element_91-Pa.inc]
[include:../element_90-Th.inc]
[include:../element_89-Ac.inc]
[include:../element_88-Ra.inc]
[include:../element_87-Fr.inc]
[include:../element_86-Rn_inh.inc]
[include:../element_85-At.inc]
[include:../element_84-Po.inc]
[include:../element_83-Bi.inc]
[include:../element_82-Pb.inc]
[include:../element_81-Tl.inc]
