[title]
Th-236 Inhalation, Aerosols Type M

[nuclide]
  Th-236  Pa-236  U-236   Th-232  Ra-228  Ac-228
  Th-228  Ra-224  Rn-220  Po-216  Pb-212  Bi-212
  Po-212  Tl-208

[include:../parameter_90-Th_inh_Aerosols-TypeM.inc]

[include:../common_intake_inh.inc]

[include:../common_HRTM.inc]
[include:../common_HATM+UB.inc]

[include:../element_92-U.inc]
[include:../element_91-Pa.inc]
[include:../element_90-Th.inc]
[include:../element_89-Ac.inc]
[include:../element_88-Ra.inc]
[include:../element_87-Fr.inc]
[include:../element_86-Rn_inh.inc]
[include:../element_85-At.inc]
[include:../element_84-Po.inc]
[include:../element_83-Bi.inc]
[include:../element_82-Pb.inc]
[include:../element_81-Tl.inc]
