[title]
Pu-243 Injection

[nuclide]
  Pu-243  Am-243  Np-239  Pu-239  U-235m  U-235
  Th-231  Pa-231  Ac-227
  Th-227  Fr-223  Ra-223  Rn-219  At-219
  Bi-215  Po-215  Pb-211  Bi-211  Tl-207  Po-211

[include:../parameter_94-Pu_ing_Soluble.inc]

[include:../common_intake_inj.inc]

[include:../common_HATM+UB.inc]

[include:../element_96-Cm.inc]
[include:../element_95-Am.inc]
[include:../element_94-Pu.inc]
[include:../element_93-Np.inc]
[include:../element_92-U.inc]
[include:../element_91-Pa.inc]
[include:../element_90-Th.inc]
[include:../element_89-Ac.inc]
[include:../element_88-Ra.inc]
[include:../element_87-Fr.inc]
[include:../element_86-Rn_ing.inc]
[include:../element_85-At.inc]
[include:../element_84-Po.inc]
[include:../element_83-Bi.inc]
[include:../element_82-Pb.inc]
[include:../element_81-Tl.inc]
