[title]
Pu-246 Inhalation, Aerosols Type M

[nuclide]
  Pu-246  Am-246m Cm-246  Pu-242  U-238
  Th-234  Pa-234m Pa-234  U-234
  Th-230  Ra-226  Rn-222  Po-218  Pb-214  At-218
  Bi-214  Rn-218  Po-214  Tl-210  Pb-210
  Bi-210  Po-210  Tl-206

[include:../parameter_94-Pu_inh_Aerosols-TypeM.inc]

[include:../common_intake_inh.inc]

[include:../common_HRTM.inc]
[include:../common_HATM+UB.inc]

[include:../element_96-Cm.inc]
[include:../element_95-Am.inc]
[include:../element_94-Pu.inc]
[include:../element_93-Np.inc]
[include:../element_92-U.inc]
[include:../element_91-Pa.inc]
[include:../element_90-Th.inc]
[include:../element_89-Ac.inc]
[include:../element_88-Ra.inc]
[include:../element_87-Fr.inc]
[include:../element_86-Rn_inh.inc]
[include:../element_85-At.inc]
[include:../element_84-Po.inc]
[include:../element_83-Bi.inc]
[include:../element_82-Pb.inc]
[include:../element_81-Tl.inc]
