[title]
Pu-238 Ingestion, Soluble

[nuclide]
  Pu-238  U-234   Th-230
  Ra-226  Rn-222  Po-218  At-218  Rn-218
  Pb-214  Bi-214  Po-214  Tl-210
  Pb-210  Bi-210  Po-210  Tl-206

[include:../parameter_94-Pu_ing_Soluble.inc]

[include:../common_intake_ing.inc]

[include:../common_HATM+UB.inc]

[include:../element_96-Cm.inc]
[include:../element_95-Am.inc]
[include:../element_94-Pu.inc]
[include:../element_93-Np.inc]
[include:../element_92-U.inc]
[include:../element_91-Pa.inc]
[include:../element_90-Th.inc]
[include:../element_89-Ac.inc]
[include:../element_88-Ra.inc]
[include:../element_87-Fr.inc]
[include:../element_86-Rn_ing.inc]
[include:../element_85-At.inc]
[include:../element_84-Po.inc]
[include:../element_83-Bi.inc]
[include:../element_82-Pb.inc]
[include:../element_81-Tl.inc]
