[title]
Pu-244 Injection

[nuclide]
  Pu-244  U-240   Np-240m Np-240  Pu-240  U-236
  Th-232  Ra-228  Ac-228  Th-228  Ra-224  Rn-220
  Po-216  Pb-212  Bi-212  Po-212  Tl-208

[include:../parameter_94-Pu_ing_Soluble.inc]

[include:../common_intake_inj.inc]

[include:../common_HATM+UB.inc]

[include:../element_96-Cm.inc]
[include:../element_95-Am.inc]
[include:../element_94-Pu.inc]
[include:../element_93-Np.inc]
[include:../element_92-U.inc]
[include:../element_91-Pa.inc]
[include:../element_90-Th.inc]
[include:../element_89-Ac.inc]
[include:../element_88-Ra.inc]
[include:../element_87-Fr.inc]
[include:../element_86-Rn_ing.inc]
[include:../element_85-At.inc]
[include:../element_84-Po.inc]
[include:../element_83-Bi.inc]
[include:../element_82-Pb.inc]
[include:../element_81-Tl.inc]
